20 30
10 2 6 11 21 4 8 3 8 10
20 4 3 9 13 2 3 4 7 8
150 200
21 32 44 34 50 37 49 50 33 25 3 24 37 25 11 50 7 26 33 4 33 49 16 16 32 1 22 16 5 23 41 24 40 9 20 47 42 40 21 23 31 30 26 1 36 9 10 13 28 7
4 64 34 76 54 73 89 99 49 22 80 75 15 90 49 34 5 61 19 52 7 74 42 35 35 32 75 85 18 70 27 51 38 6 19 3 73 1 55 70 74 74 82 5 81 49 5 6 78 18